10 10 3

0 312 183 306 356 162 185 297 71 250 
207 0 418 111 368 420 357 435 162 184 
358 414 0 177 428 244 150 391 123 126 
219 71 60 0 137 90 400 149 152 62 
284 399 290 484 0 312 207 95 180 333 
158 321 201 292 386 0 115 419 313 65 
276 204 138 352 129 367 0 362 424 407 
469 72 58 481 307 163 477 0 290 426 
183 91 312 222 200 339 373 442 0 224 
194 117 488 209 99 398 54 401 233 0 

87.1 0 4
87.1 1 2
87.1 2 4
87.1 3 0
87.1 4 7
87.1 5 0
87.1 6 7
87.1 7 6
87.1 8 1
87.1 9 2

